NAME : p10-3-100
COMMENT : "CPTP instance of Bulhões et al. (2018)"
TYPE : CPTP
DIMENSION : 200
EDGE_WEIGHT_TYPE : EUC_2D
VEHICLES : 3
CAPACITY : 100
NODE_COORD_SECTION
   1   35   35
   2   22   22
   3   36   26
   4   21   45
   5   45   35
   6   55   20
   7   33   34
   8   50   50
   9   55   45
  10   26   59
  11   40   66
  12   55   65
  13   35   51
  14   62   35
  15   62   57
  16   62   24
  17   21   36
  18   33   44
  19    9   56
  20   62   48
  21   66   14
  22   44   13
  23   26   13
  24   11   28
  25    7   43
  26   17   64
  27   41   46
  28   55   34
  29   35   16
  30   52   26
  31   43   26
  32   31   76
  33   22   53
  34   26   29
  35   50   40
  36   55   50
  37   54   10
  38   60   15
  39   47   66
  40   30   60
  41   30   50
  42   12   17
  43   15   14
  44   16   19
  45   21   48
  46   50   30
  47   51   42
  48   50   15
  49   48   21
  50   12   38
  51   37   52
  52   49   49
  53   52   64
  54   20   26
  55   40   30
  56   21   47
  57   17   63
  58   31   62
  59   52   33
  60   51   21
  61   42   41
  62   31   32
  63    5   25
  64   12   42
  65   36   16
  66   52   41
  67   27   23
  68   17   33
  69   13   13
  70   57   58
  71   62   42
  72   42   57
  73   16   57
  74    8   52
  75    7   38
  76   27   68
  77   30   48
  78   43   67
  79   58   48
  80   58   27
  81   37   69
  82   38   46
  83   46   10
  84   61   33
  85   62   63
  86   63   69
  87   32   22
  88   45   35
  89   59   15
  90    5    6
  91   10   17
  92   21   10
  93    5   64
  94   30   15
  95   39   10
  96   32   39
  97   25   32
  98   25   55
  99   48   28
 100   56   37
 101   41   49
 102   35   17
 103   55   45
 104   55   20
 105   15   30
 106   25   30
 107   20   50
 108   10   43
 109   55   60
 110   30   60
 111   20   65
 112   50   35
 113   30   25
 114   15   10
 115   30    5
 116   10   20
 117    5   30
 118   20   40
 119   15   60
 120   45   65
 121   45   20
 122   45   10
 123   55    5
 124   65   35
 125   65   20
 126   45   30
 127   35   40
 128   41   37
 129   64   42
 130   40   60
 131   31   52
 132   35   69
 133   53   52
 134   65   55
 135   63   65
 136    2   60
 137   20   20
 138    5    5
 139   60   12
 140   40   25
 141   42    7
 142   24   12
 143   23    3
 144   11   14
 145    6   38
 146    2   48
 147    8   56
 148   13   52
 149    6   68
 150   47   47
 151   49   58
 152   27   43
 153   37   31
 154   57   29
 155   63   23
 156   53   12
 157   32   12
 158   36   26
 159   21   24
 160   17   34
 161   12   24
 162   24   58
 163   27   69
 164   15   77
 165   62   77
 166   49   73
 167   67    5
 168   56   39
 169   37   47
 170   37   56
 171   57   68
 172   47   16
 173   44   17
 174   46   13
 175   49   11
 176   49   42
 177   53   43
 178   61   52
 179   57   48
 180   56   37
 181   55   54
 182   15   47
 183   14   37
 184   11   31
 185   16   22
 186    4   18
 187   28   18
 188   26   52
 189   26   35
 190   31   67
 191   15   19
 192   22   22
 193   18   24
 194   26   27
 195   25   24
 196   22   27
 197   25   21
 198   19   21
 199   20   26
 200   18   18
DEMAND_SECTION
   1    0
   2   18
   3   26
   4   11
   5   30
   6   21
   7   19
   8   15
   9   16
  10   29
  11   26
  12   37
  13   16
  14   12
  15   31
  16    8
  17   19
  18   20
  19   13
  20   15
  21   22
  22   28
  23   12
  24    6
  25   27
  26   14
  27   18
  28   17
  29   29
  30   13
  31   22
  32   25
  33   28
  34   27
  35   19
  36   10
  37   12
  38   14
  39   24
  40   16
  41   33
  42   15
  43   11
  44   18
  45   17
  46   21
  47   27
  48   19
  49   20
  50    5
  51    7
  52   30
  53   16
  54    9
  55   21
  56   15
  57   19
  58   23
  59   11
  60    5
  61   19
  62   29
  63   23
  64   21
  65   10
  66   15
  67    3
  68   41
  69    9
  70   28
  71    8
  72    8
  73   16
  74   10
  75   28
  76    7
  77   15
  78   14
  79    6
  80   19
  81   11
  82   12
  83   23
  84   26
  85   17
  86    6
  87    9
  88   15
  89   14
  90    7
  91   27
  92   13
  93   11
  94   16
  95   10
  96    5
  97   25
  98   17
  99   18
 100   10
 101   10
 102    7
 103   13
 104   19
 105   26
 106    3
 107    5
 108    9
 109   16
 110   16
 111   12
 112   19
 113   23
 114   20
 115    8
 116   19
 117    2
 118   12
 119   17
 120    9
 121   11
 122   18
 123   29
 124    3
 125    6
 126   17
 127   16
 128   16
 129    9
 130   21
 131   27
 132   23
 133   11
 134   14
 135    8
 136    5
 137    8
 138   16
 139   31
 140    9
 141    5
 142    5
 143    7
 144   18
 145   16
 146    1
 147   27
 148   36
 149   30
 150   13
 151   10
 152    9
 153   14
 154   18
 155    2
 156    6
 157    7
 158   18
 159   28
 160    3
 161   13
 162   19
 163   10
 164    9
 165   20
 166   25
 167   25
 168   36
 169    6
 170    5
 171   15
 172   25
 173    9
 174    8
 175   18
 176   13
 177   14
 178    3
 179   23
 180    6
 181   26
 182   16
 183   11
 184    7
 185   41
 186   35
 187   26
 188    9
 189   15
 190    3
 191    1
 192    2
 193   22
 194   27
 195   20
 196   11
 197   12
 198   10
 199    9
 200   17
PRIZE_SECTION
   1    0
   2   12
   3   20
   4    8
   5   21
   6   25
   7   19
   8   18
   9   21
  10   25
  11   17
  12   50
  13    8
  14   12
  15   35
  16    4
  17   23
  18   19
  19    9
  20   16
  21   26
  22   24
  23    6
  24    5
  25   37
  26    7
  27   23
  28   18
  29   20
  30   17
  31   18
  32   36
  33   22
  34   38
  35   12
  36   10
  37   16
  38   15
  39   31
  40   21
  41   43
  42   18
  43    7
  44   21
  45   20
  46   14
  47   30
  48   24
  49   12
  50    5
  51    9
  52   37
  53   11
  54    6
  55   17
  56   14
  57   10
  58   21
  59    9
  60    6
  61   24
  62   26
  63   20
  64   12
  65   12
  66   11
  67    2
  68   25
  69    8
  70   29
  71    9
  72    6
  73   10
  74   10
  75   22
  76    6
  77   10
  78    9
  79    5
  80   13
  81   14
  82   17
  83   22
  84   23
  85   20
  86    7
  87    7
  88   21
  89    8
  90    8
  91   21
  92   15
  93    8
  94   13
  95   14
  96    3
  97   23
  98   21
  99   16
 100   12
 101   14
 102    4
 103   13
 104   14
 105   16
 106    2
 107    5
 108   11
 109   23
 110   18
 111    6
 112   26
 113   17
 114   14
 115    8
 116   16
 117    2
 118    8
 119   16
 120    5
 121    6
 122   26
 123   41
 124    1
 125    3
 126   16
 127   16
 128   15
 129    7
 130   12
 131   34
 132   18
 133   15
 134   12
 135    5
 136    4
 137    8
 138   15
 139   32
 140    8
 141    5
 142    3
 143    8
 144   11
 145   19
 146    1
 147   27
 148   47
 149   34
 150   16
 151   14
 152    7
 153   19
 154   11
 155    1
 156    8
 157    3
 158   14
 159   21
 160    2
 161    7
 162   25
 163   13
 164    5
 165   25
 166   15
 167   37
 168   21
 169    4
 170    5
 171    8
 172   34
 173   10
 174    5
 175    9
 176    8
 177    8
 178    3
 179   25
 180    3
 181   18
 182   14
 183    6
 184    6
 185   54
 186   23
 187   16
 188   11
 189   18
 190    3
 191    0
 192    2
 193   26
 194   32
 195   23
 196   13
 197    9
 198    9
 199    8
 200   24
DEPOT_SECTION
 1
-1
EOF
